\ LP format - for model browsing. Use MPS format to capture full model detail.
Minimize
  0 + 1 + 2 + 3 + 4 + 5 + 6 + 7 + 8 + 9 + 10 + 11
Subject To
 R0: 3 0 + 12 >= 20
 R1: 1 + 12 >= 13
 R2: 2 + 12 >= 17
 R3: 3 3 >= 18
 R4: 5 4 + 2 12 >= 20
 R5: 2 5 >= 45
 R6: 4 6 >= 13
 R7: 7 + 12 >= 50
 R8: 8 + 12 >= 20
 R9: 3 9 >= 35
 R10: 4 10 + 12 >= 20
 R11: 2 11 + 12 >= 30
Bounds
End
